&control
   calculation = 'bands'
   prefix='swnt',
   tstress = .true.
   tprnfor = .true.
   pseudo_dir = '../sssp_pseudo',
   outdir='./work/'
   disk_io='low'
/
&SYSTEM
   ibrav = 0
   nat = 104
   ntyp = 1
   ecutwfc = 40.0
   occupations = 'smearing'
   smearing = 'gaussian'
   degauss = 0.02
   nosym =.true.
/
&electrons
   electron_maxstep=300,
   mixing_mode = 'plain'
   mixing_beta = 0.2
/
&ions
/
CELL_PARAMETERS {angstrom}
 19.55651  0.0    0.0 
  0.0  19.55651   0.0 
  0.0   0.0    8.86790
ATOMIC_SPECIES
 C    12.011    C.pbe-n-kjpaw_psl.1.0.0.UPF
ATOMIC_POSITIONS {angstrom}
C  14.66738  9.77826  0.00000 
C  14.63174 10.36758  2.38751 
C  14.27615 11.69463  2.04644 
C  14.10736 12.05035  0.68215 
C  13.30431 13.16507  0.34107 
C  12.55560 13.80193  1.36429 
C  11.32649 14.41577  1.02322 
C   8.60821 14.52531  0.34107 
C   7.33369 14.01236  0.00000 
C  14.66342  9.97512  3.75180 
C  14.52531 10.94830  4.77502 
C  14.01236 12.22282  4.43395 
C  13.80193 12.55560  3.06966 
C  12.87036 13.56540  2.72858 
C  12.05035 14.10736  3.75180 
C  10.75621 14.56858  3.41073 
C  10.36758 14.63174  2.04644 
C   8.99398 14.60407  1.70536 
C   8.04455 14.34967  2.72858 
C   6.84115 13.68683  2.38751 
C   6.53616 13.43782  1.02322 
C   5.64601 12.39133  0.68215 
C   5.20684 11.51196  1.70536 
C   4.90498 10.17167  1.36429 
C   4.88913  9.77826 -0.00000 
C   5.44915  7.50616  0.68215 
C   6.25220  6.39144  0.34107 
C  14.60407 10.56253  6.13931 
C  14.34967 11.51196  7.16253 
C  13.68683 12.71536  6.82146 
C  13.43782 13.02035  5.45717 
C  12.39133 13.91050  5.11609 
C  11.51196 14.34967  6.13931 
C  10.17167 14.65153  5.79824 
C   9.77826 14.66738  4.43395 
C   8.41802 14.47435  4.09288 
C   7.50616 14.10736  5.11609 
C   6.39144 13.30431  4.77502 
C   6.11869 13.02035  3.41073 
C   5.36117 11.87419  3.06966 
C   5.03120 10.94830  4.09288 
C   4.89309  9.58139  3.75180 
C   4.92478  9.18894  2.38751 
C   5.28036  7.86188  2.04644 
C   5.75458  7.00091  3.06966 
C   6.68615  5.99111  2.72858 
C   7.00091  5.75458  1.36429 
C   8.23003  5.14074  1.02322 
C   9.18894  4.92478  2.04644 
C  10.56253  4.95244  1.70536 
C  10.94830  5.03120  0.34107 
C  12.22282  5.54415 -0.00000 
C  13.02035  6.11869  1.02322 
C  13.91050  7.16518  0.68215 
C  14.47435 11.13850  8.52682 
C  13.02035 13.43782  7.84468 
C  11.87419 14.19534  7.50361 
C  10.94830 14.52531  8.52682 
C   9.58139 14.66342  8.18575 
C   9.18894 14.63174  6.82146 
C   7.86188 14.27615  6.48039 
C   7.00091 13.80193  7.50361 
C   5.99111 12.87036  7.16253 
C   5.75458 12.55560  5.79824 
C   5.14074 11.32649  5.45717 
C   4.92478 10.36758  6.48039 
C   4.95244  8.99398  6.13931 
C   5.03120  8.60821  4.77502 
C   5.54415  7.33369  4.43395 
C   6.11869  6.53616  5.45717 
C   7.16518  5.64601  5.11609 
C   7.50616  5.44915  3.75180 
C   8.80030  4.98793  3.41073 
C   9.77826  4.88913  4.43395 
C  11.13850  5.08216  4.09288 
C  11.51196  5.20684  2.72858 
C  12.71536  5.86968  2.38751 
C  13.43782  6.53616  3.41073 
C  14.19534  7.68232  3.06966 
C  14.34967  8.04455  1.70536 
C  14.65153  9.38484  1.36429 
C   5.44915 12.05035  8.18575 
C   4.98793 10.75621  7.84468 
C   5.08216  8.41802  8.52682 
C   5.20684  8.04455  7.16253 
C   5.86968  6.84115  6.82146 
C   6.53616  6.11869  7.84468 
C   7.68232  5.36117  7.50361 
C   8.04455  5.20684  6.13931 
C   9.38484  4.90498  5.79824 
C  10.36758  4.92478  6.82146 
C  11.69463  5.28036  6.48039 
C  12.05035  5.44915  5.11609 
C  13.16507  6.25220  4.77502 
C  13.80193  7.00091  5.79824 
C  14.41577  8.23003  5.45717 
C  14.52531  8.60821  4.09288 
C   8.60821  5.03120  8.52682 
C   9.97512  4.89309  8.18575 
C  12.55560  5.75458  7.50361 
C  13.56540  6.68615  7.16253 
C  14.10736  7.50616  8.18575 
C  14.56858  8.80030  7.84468 
C  14.63174  9.18894  6.48039 
K_POINTS {crystal_b}
2
0.00000  0.00000  0.00000  50 ! gamma
0.00000  0.00000  0.50000  1 ! Z
