&control
   calculation = 'scf'
   prefix='swnt',
   tstress = .true.
   tprnfor = .true.
   pseudo_dir = '../sssp_pseudo',
   outdir='./work/'
   disk_io='low'
/
&SYSTEM
   ibrav = 0
   nat = 56
   ntyp = 2
   nbnd = 150
   ecutwfc = 40.0
   occupations = 'smearing'
   smearing = 'gaussian'
   degauss = 0.02
   nosym =.true.
/
&electrons
   electron_maxstep=300,
   mixing_mode = 'plain'
   mixing_beta = 0.2
/
&ions
/
CELL_PARAMETERS {angstrom}
  8.28530  0.0    0.0 
  0.0   8.28530   0.0 
  0.0   0.0   11.27090
ATOMIC_SPECIES
 B    10.811    b_pbe_v1.4.uspp.F.UPF
 N    14.007    N.pbe-n-radius_5.UPF
ATOMIC_POSITIONS {angstrom}
  B   6.21397  4.14265  0.00000 
  B   6.16204  4.60356  2.41519 
  N   5.43410  5.76208  2.14684 
  B   5.04136  6.00885  0.80506 
  N   3.68174  6.16204  0.53671 
  B   2.85120  5.76208  1.61013 
  N   2.12326  4.60356  1.34177 
  B   2.07132  4.14265  0.00000 
  B   3.24393  2.27645  0.80506 
  N   4.60356  2.12326  0.53671 
  N   6.21397  4.14265  3.75697 
  B   6.00885  5.04136  4.83039 
  N   5.04136  6.00885  4.56203 
  B   4.60356  6.16204  3.22026 
  N   3.24393  6.00885  2.95190 
  B   2.52322  5.43410  4.02532 
  N   2.07132  4.14265  3.75697 
  B   2.12326  3.68174  2.41519 
  N   2.85120  2.52322  2.14684 
  B   3.68174  2.12326  3.22026 
  N   5.04136  2.27645  2.95190 
  B   5.43410  2.52322  1.61013 
  N   6.16204  3.68174  1.34177 
  N   6.16204  4.60356  6.17216 
  B   5.76208  5.43410  7.24558 
  N   4.60356  6.16204  6.97722 
  B   4.14265  6.21397  5.63545 
  N   2.85120  5.76208  5.36710 
  B   2.27645  5.04136  6.44051 
  N   2.12326  3.68174  6.17216 
  B   2.27645  3.24393  4.83039 
  N   3.24393  2.27645  4.56203 
  B   4.14265  2.07132  5.63545 
  N   5.43410  2.52322  5.36710 
  B   5.76208  2.85120  4.02532 
  N   6.00885  5.04136  8.58735 
  B   5.43410  5.76208  9.66077 
  N   4.14265  6.21397  9.39242 
  B   3.68174  6.16204  8.05064 
  N   2.52322  5.43410  7.78229 
  B   2.12326  4.60356  8.85571 
  N   2.27645  3.24393  8.58735 
  B   2.52322  2.85120  7.24558 
  N   3.68174  2.12326  6.97722 
  B   4.60356  2.12326  8.05064 
  N   5.76208  2.85120  7.78229 
  B   6.00885  3.24393  6.44051 
  N   5.76208  5.43410 11.00255 
  B   3.24393  6.00885 10.46584 
  N   2.27645  5.04136 10.19748 
  N   2.52322  2.85120 11.00255 
  B   2.85120  2.52322  9.66077 
  N   4.14265  2.07132  9.39242 
  B   5.04136  2.27645 10.46584 
  N   6.00885  3.24393 10.19748 
  B   6.16204  3.68174  8.85571
K_POINTS {crystal_b}
2
0.00000  0.00000  0.00000  30 ! gamma
0.00000  0.00000  0.50000  1 ! Z
