&control
   calculation = 'scf'
   prefix='swnt',
   tstress = .true.
   tprnfor = .true.
   pseudo_dir = '../sssp_pseudo',
   outdir='./work/'
   disk_io='low'
/
&SYSTEM
   ibrav = 0
   nat = 72
   ntyp = 2
   ecutwfc = 40.0
   occupations = 'smearing'
   smearing = 'gaussian'
   degauss = 0.02
   nosym =.true.
/
&electrons
   electron_maxstep=300,
   mixing_mode = 'plain'
   mixing_beta = 0.2
/
&ions
/
CELL_PARAMETERS {angstrom}
 24.14821  0.0    0.0 
  0.0  24.14821   0.0 
  0.0   0.0    5.47500
ATOMIC_SPECIES
 Mo  95.95    Mo_ONCV_PBE-1.0.oncvpsp.upf
  S  32.065   s_pbe_v1.4.uspp.F.UPF
ATOMIC_POSITIONS {angstrom}
Mo  18.11115 12.07410  0.00000 
Mo  17.90545 13.63661  2.73750 
Mo  17.30234 15.09263  0.00000 
Mo  15.09263 17.30234  0.00000 
Mo  16.34294 16.34294  2.73750 
Mo  13.63661 17.90545  2.73750 
Mo  12.07410 18.11115  0.00000 
Mo   9.05558 17.30234  0.00000 
Mo  10.51160 17.90545  2.73750 
Mo   7.80526 16.34294  2.73750 
Mo   6.84586 15.09263  0.00000 
Mo   6.03705 12.07410  0.00000 
Mo   6.24276 13.63661  2.73750 
Mo   6.24276 10.51160  2.73750 
Mo   6.84586  9.05558  0.00000 
Mo   9.05558  6.84586  0.00000 
Mo   7.80526  7.80526  2.73750 
Mo  10.51160  6.24276  2.73750 
Mo  12.07410  6.03705  0.00000 
Mo  15.09263  6.84586  0.00000 
Mo  13.63661  6.24276  2.73750 
Mo  16.34294  7.80526  2.73750 
Mo  17.30234  9.05558  0.00000 
Mo  17.90545 10.51160  2.73750 
S  16.60501 12.07410  1.82500 
S  15.99799 14.33956  1.82500 
S  16.45063 13.24679  4.56250 
S  15.27794 15.27794  4.56250 
S  14.33956 15.99799  1.82500 
S  12.07410 16.60501  1.82500 
S  13.24679 16.45063  4.56250 
S  10.90142 16.45063  4.56250 
S   9.80865 15.99799  1.82500 
S   8.15022 14.33956  1.82500 
S   8.87026 15.27794  4.56250 
S   7.69758 13.24679  4.56250 
S   7.54319 12.07410  1.82500 
S   8.15022  9.80865  1.82500 
S   7.69758 10.90142  4.56250 
S   8.87026  8.87026  4.56250 
S   9.80865  8.15022  1.82500 
S  12.07410  7.54319  1.82500 
S  10.90142  7.69758  4.56250 
S  13.24679  7.69758  4.56250 
S  14.33956  8.15022  1.82500 
S  15.99799  9.80865  1.82500 
S  15.27794  8.87026  4.56250 
S  16.45063 10.90142  4.56250 
S  19.61729 12.07410  1.82500 
S  18.60670 15.84570  1.82500 
S  19.36027 14.02642  4.56250 
S  17.40794 17.40794  4.56250 
S  15.84570 18.60670  1.82500 
S  12.07410 19.61729  1.82500 
S  14.02642 19.36027  4.56250 
S  10.12178 19.36027  4.56250 
S   8.30251 18.60670  1.82500 
S   5.54151 15.84570  1.82500 
S   6.74026 17.40794  4.56250 
S   4.78794 14.02642  4.56250 
S   4.53091 12.07410  1.82500 
S   5.54151  8.30251  1.82500 
S   4.78794 10.12178  4.56250 
S   6.74026  6.74026  4.56250 
S   8.30251  5.54151  1.82500 
S  12.07410  4.53091  1.82500 
S  10.12178  4.78794  4.56250 
S  14.02642  4.78794  4.56250 
S  15.84570  5.54151  1.82500 
S  18.60670  8.30251  1.82500 
S  17.40794  6.74026  4.56250 
S  19.36027 10.12178  4.56250 
K_POINTS {automatic}
1 1 12  0 0 0
