&control
   calculation = 'scf'
   prefix='swnt',
   tstress = .true.
   tprnfor = .true.
   pseudo_dir = '../sssp_pseudo',
   outdir='./work/'
   disk_io='low'
/
&SYSTEM
   ibrav = 0
   nat = 156
   ntyp = 1
   ecutwfc = 40.0
   occupations = 'smearing'
   smearing = 'gaussian'
   degauss = 0.02
   nosym =.true.
/
&electrons
   electron_maxstep=300,
   mixing_mode = 'plain'
   mixing_beta = 0.2
/
&ions
/
CELL_PARAMETERS {angstrom}
 16.93644  0.0    0.0 
  0.0  16.93644   0.0 
  0.0   0.0   15.35965
ATOMIC_SPECIES
 C    12.011    C.pbe-n-kjpaw_psl.1.0.0.UPF
ATOMIC_POSITIONS {angstrom}
C  12.70233  8.46822  0.00000 
C  12.64750  9.14742  2.36302 
C  12.21734 10.43591  1.96919 
C  12.04684 10.73120  0.59076 
C  11.14606 11.74798  0.19692 
C  10.28335 12.29353  1.18151 
C   8.97858 12.67146  0.78767 
C   6.35116 12.13506  0.00000 
C  12.68860  8.80892  3.74145 
C  12.48442  9.80902  4.72605 
C  11.85315 11.01183  4.33221 
C  11.63749 11.27595  2.95378 
C  10.58527 12.13506  2.55994 
C   9.64622 12.53516  3.54453 
C   8.29773 12.69889  3.15070 
C   7.95785 12.67146  1.77227 
C   6.65309 12.29353  1.37843 
C   5.79038 11.74798  2.36302 
C   4.88959 10.73120  1.96919 
C   4.71910 10.43591  0.59076 
C   4.28894  9.14742  0.19692 
C   4.24784  8.12751  1.18151 
C   4.57292  6.80859  0.78767 
C   6.35116  4.80137  0.00000 
C  12.57929  9.48151  6.10448 
C  12.21734 10.43591  7.08907 
C  11.40129 11.52187  6.69523 
C  11.14606 11.74798  5.31680 
C   9.96965 12.42718  4.92296 
C   8.97858 12.67146  5.90756 
C   7.62129 12.61676  5.51372 
C   7.29021 12.53516  4.13529 
C   6.06297 11.95282  3.74145 
C   5.29894 11.27595  4.72605 
C   4.57292 10.12785  4.33221 
C   4.45201  9.80902  2.95378 
C   4.23411  8.46822  2.55994 
C   4.35714  7.45493  3.54453 
C   4.88959  6.20523  3.15070 
C   5.08329  5.92461  1.77227 
C   6.06297  4.98361  1.37843 
C   6.96678  4.50926  2.36302 
C   8.29773  4.23754  1.96919 
C   8.63871  4.23754  0.59076 
C   9.96965  4.50926  0.19692 
C  10.87347  4.98361  1.18151 
C  11.85315  5.92461  0.78767 
C  12.70233  8.46822 10.23977 
C  12.68860  8.80892  8.86134 
C  12.36351 10.12785  8.46750 
C  11.85315 11.01183  9.45209 
C  10.87347 11.95282  9.05825 
C  10.58527 12.13506  7.67982 
C   9.31515 12.61676  7.28599 
C   8.29773 12.69889  8.27058 
C   6.96678 12.42718  7.87674 
C   6.65309 12.29353  6.49831 
C   5.53515 11.52187  6.10448 
C   4.88959 10.73120  7.08907 
C   4.35714  9.48151  6.69523 
C   4.28894  9.14742  5.31680 
C   4.28894  7.78902  4.92296 
C   4.57292  6.80859  5.90756 
C   5.29894  5.66048  5.51372 
C   5.53515  5.41457  4.13529 
C   6.65309  4.64291  3.74145 
C   7.62129  4.31968  4.72605 
C   8.97858  4.26498  4.33221 
C   9.31515  4.31968  2.95378 
C  10.58527  4.80137  2.55994 
C  11.40129  5.41457  3.54453 
C  12.21734  6.50053  3.15070 
C  12.36351  6.80859  1.77227 
C  12.68860  8.12751  1.37843 
C  12.64750  9.14742 12.60279 
C  12.57929  9.48151 11.22436 
C  12.04684 10.73120 10.83052 
C  11.40129 11.52187 11.81511 
C  10.28335 12.29353 11.42128 
C   9.96965 12.42718 10.04285 
C   8.63871 12.69889  9.64901 
C   7.62129 12.61676 10.63360 
C   6.35116 12.13506 10.23977 
C   6.06297 11.95282  8.86134 
C   5.08329 11.01183  8.46750 
C   4.57292 10.12785  9.45209 
C   4.24784  8.80892  9.05825 
C   4.23411  8.46822  7.67982 
C   4.45201  7.12741  7.28599 
C   4.88959  6.20523  8.27058 
C   5.79038  5.18846  7.87674 
C   6.06297  4.98361  6.49831 
C   7.29021  4.40128  6.10448 
C   8.29773  4.23754  7.08907 
C   9.64622  4.40128  6.69523 
C   9.96965  4.50926  5.31680 
C  11.14606  5.18846  4.92296 
C  11.85315  5.92461  5.90756 
C  12.48442  7.12741  5.51372 
C  12.57929  7.45493  4.13529 
C  12.48442  9.80902 14.96581 
C  12.36351 10.12785 13.58738 
C  11.63749 11.27595 13.19354 
C  10.87347 11.95282 14.17814 
C   9.64622 12.53516 13.78430 
C   9.31515 12.61676 12.40587 
C   7.95785 12.67146 12.01203 
C   6.96678 12.42718 12.99663 
C   5.79038 11.74798 12.60279 
C   5.53515 11.52187 11.22436 
C   4.71910 10.43591 10.83052 
C   4.35714  9.48151 11.81511 
C   4.24784  8.12751 11.42128 
C   4.28894  7.78902 10.04285 
C   4.71910  6.50053  9.64901 
C   5.29894  5.66048 10.63360 
C   6.35116  4.80137 10.23977 
C   6.65309  4.64291  8.86134 
C   7.95785  4.26498  8.46750 
C   8.97858  4.26498  9.45209 
C  10.28335  4.64291  9.05825 
C  10.58527  4.80137  7.67982 
C  11.63749  5.66048  7.28599 
C  12.21734  6.50053  8.27058 
C  12.64750  7.78902  7.87674 
C  12.68860  8.12751  6.49831 
C   8.63871 12.69889 14.76889 
C   7.29021 12.53516 14.37506 
C   5.29894 11.27595 14.96581 
C   5.08329 11.01183 13.58738 
C   4.45201  9.80902 13.19354 
C   4.24784  8.80892 14.17814 
C   4.35714  7.45493 13.78430 
C   4.45201  7.12741 12.40587 
C   5.08329  5.92461 12.01203 
C   5.79038  5.18846 12.99663 
C   6.96678  4.50926 12.60279 
C   7.29021  4.40128 11.22436 
C   8.63871  4.23754 10.83052 
C   9.64622  4.40128 11.81511 
C  10.87347  4.98361 11.42128 
C  11.14606  5.18846 10.04285 
C  12.04684  6.20523  9.64901 
C  12.48442  7.12741 10.63360 
C   4.71910  6.50053 14.76889 
C   5.53515  5.41457 14.37506 
C   7.62129  4.31968 14.96581 
C   7.95785  4.26498 13.58738 
C   9.31515  4.31968 13.19354 
C  10.28335  4.64291 14.17814 
C  11.40129  5.41457 13.78430 
C  11.63749  5.66048 12.40587 
C  12.36351  6.80859 12.01203 
C  12.64750  7.78902 12.99663 
C  12.04684  6.20523 14.76889 
C  12.57929  7.45493 14.37506 
K_POINTS {automatic}
1 1 12  0 0 0
