&control
   calculation = 'bands'
   prefix='swnt',
   tstress = .true.
   tprnfor = .true.
   pseudo_dir = '../sssp_pseudo',
   outdir='./work/'
   disk_io='low'
/
&SYSTEM
   ibrav = 0
   nat = 132
   ntyp = 2
   ecutwfc = 40.0
   nbnd = 700
   occupations = 'smearing'
   smearing = 'gaussian'
   degauss = 0.02
   nosym =.true.
/
&electrons
   electron_maxstep=300,
   mixing_mode = 'plain'
   mixing_beta = 0.2
/
&ions
/
CELL_PARAMETERS {angstrom}
 40.0   0.0    0.0 
  0.0  40.0    0.0 
  0.0   0.0    5.47500
ATOMIC_SPECIES
 Mo  95.95    Mo_ONCV_PBE-1.0.oncvpsp.upf
  S  32.065   s_pbe_v1.4.uspp.F.UPF
ATOMIC_POSITIONS {angstrom}
Mo  33.20378 22.13586  0.00000 
Mo  33.09113 23.71099  2.73750 
Mo  32.75545 25.25405  0.00000 
Mo  31.44679 28.11963  0.00000 
Mo  32.20360 26.73364  2.73750 
Mo  30.50044 29.38381  2.73750 
Mo  29.38381 30.50044  0.00000 
Mo  26.73364 32.20360  0.00000 
Mo  28.11963 31.44679  2.73750 
Mo  25.25405 32.75545  2.73750 
Mo  23.71099 33.09113  0.00000 
Mo  20.56072 33.09113  0.00000 
Mo  22.13586 33.20378  2.73750 
Mo  19.01766 32.75545  2.73750 
Mo  17.53807 32.20360  0.00000 
Mo  14.88790 30.50044  0.00000 
Mo  16.15208 31.44679  2.73750 
Mo  13.77127 29.38381  2.73750 
Mo  12.82492 28.11963  0.00000 
Mo  11.51626 25.25405  0.00000 
Mo  12.06811 26.73364  2.73750 
Mo  11.18058 23.71099  2.73750 
Mo  11.06793 22.13586  0.00000 
Mo  11.51626 19.01766  0.00000 
Mo  11.18058 20.56072  2.73750 
Mo  12.06811 17.53807  2.73750 
Mo  12.82492 16.15208  0.00000 
Mo  14.88790 13.77127  0.00000 
Mo  13.77127 14.88790  2.73750 
Mo  16.15208 12.82492  2.73750 
Mo  17.53807 12.06811  0.00000 
Mo  20.56072 11.18058  0.00000 
Mo  19.01766 11.51626  2.73750 
Mo  22.13586 11.06793  2.73750 
Mo  23.71099 11.18058  0.00000 
Mo  26.73364 12.06811  0.00000 
Mo  25.25405 11.51626  2.73750 
Mo  28.11963 12.82492  2.73750 
Mo  29.38381 13.77127  0.00000 
Mo  31.44679 16.15208  0.00000 
Mo  30.50044 14.88790  2.73750 
Mo  32.20360 17.53807  2.73750 
Mo  32.75545 19.01766  0.00000 
Mo  33.09113 20.56072  2.73750 
S  31.69764 22.13586  1.82500 
S  31.31032 24.82972  1.82500 
S  31.60032 23.49664  4.56250 
S  30.83356 26.10797  4.56250 
S  30.17974 27.30535  1.82500 
S  28.39749 29.36217  1.82500 
S  29.36217 28.39749  4.56250 
S  27.30535 30.17974  4.56250 
S  26.10797 30.83356  1.82500 
S  23.49664 31.60032  1.82500 
S  24.82972 31.31032  4.56250 
S  22.13586 31.69764  4.56250 
S  20.77507 31.60032  1.82500 
S  18.16375 30.83356  1.82500 
S  19.44199 31.31032  4.56250 
S  16.96636 30.17974  4.56250 
S  15.87422 29.36217  1.82500 
S  14.09197 27.30535  1.82500 
S  14.90954 28.39749  4.56250 
S  13.43815 26.10797  4.56250 
S  12.96139 24.82972  1.82500 
S  12.57407 22.13586  1.82500 
S  12.67139 23.49664  4.56250 
S  12.67139 20.77507  4.56250 
S  12.96139 19.44199  1.82500 
S  14.09197 16.96636  1.82500 
S  13.43815 18.16375  4.56250 
S  14.90954 15.87422  4.56250 
S  15.87422 14.90954  1.82500 
S  18.16375 13.43815  1.82500 
S  16.96636 14.09197  4.56250 
S  19.44199 12.96139  4.56250 
S  20.77507 12.67139  1.82500 
S  23.49664 12.67139  1.82500 
S  22.13586 12.57407  4.56250 
S  24.82972 12.96139  4.56250 
S  26.10797 13.43815  1.82500 
S  28.39749 14.90954  1.82500 
S  27.30535 14.09197  4.56250 
S  29.36217 15.87422  4.56250 
S  30.17974 16.96636  1.82500 
S  31.31032 19.44199  1.82500 
S  30.83356 18.16375  4.56250 
S  31.60032 20.77507  4.56250 
S  34.70992 22.13586  1.82500 
S  34.20058 25.67838  1.82500 
S  34.58194 23.92533  4.56250 
S  33.57363 27.35931  4.56250 
S  32.71383 28.93391  1.82500 
S  30.37012 31.63870  1.82500 
S  31.63870 30.37012  4.56250 
S  28.93391 32.71383  4.56250 
S  27.35931 33.57363  1.82500 
S  23.92533 34.58194  1.82500 
S  25.67838 34.20058  4.56250 
S  22.13586 34.70992  4.56250 
S  20.34638 34.58194  1.82500 
S  16.91240 33.57363  1.82500 
S  18.59333 34.20058  4.56250 
S  15.33780 32.71383  4.56250 
S  13.90159 31.63870  1.82500 
S  11.55788 28.93391  1.82500 
S  12.63301 30.37012  4.56250 
S  10.69808 27.35931  4.56250 
S  10.07113 25.67838  1.82500 
S   9.56179 22.13586  1.82500 
S   9.68977 23.92533  4.56250 
S   9.68977 20.34638  4.56250 
S  10.07113 18.59333  1.82500 
S  11.55788 15.33780  1.82500 
S  10.69808 16.91240  4.56250 
S  12.63301 13.90159  4.56250 
S  13.90159 12.63301  1.82500 
S  16.91240 10.69808  1.82500 
S  15.33780 11.55788  4.56250 
S  18.59333 10.07113  4.56250 
S  20.34638  9.68977  1.82500 
S  23.92533  9.68977  1.82500 
S  22.13586  9.56179  4.56250 
S  25.67838 10.07113  4.56250 
S  27.35931 10.69808  1.82500 
S  30.37012 12.63301  1.82500 
S  28.93391 11.55788  4.56250 
S  31.63870 13.90159  4.56250 
S  32.71383 15.33780  1.82500 
S  34.20058 18.59333  1.82500 
S  33.57363 16.91240  4.56250 
S  34.58194 20.34638  4.56250
K_POINTS {crystal_b}
2
0.00000  0.00000  0.00000  30 ! gamma
0.00000  0.00000  0.50000  1 ! Z
