&bands
outdir='./work',
prefix='swnt',
filband='swnt.band',
lsym=.true.
/
