&control
   calculation = 'scf'
   prefix='swnt',
   tstress = .true.
   tprnfor = .true.
   pseudo_dir = '../sssp_pseudo',
   outdir='./work/'
   disk_io='low'
/
&SYSTEM
   ibrav = 0
   nat = 40
   ntyp = 1
   ecutwfc = 40.0
   occupations = 'smearing'
   smearing = 'gaussian'
   degauss = 0.02
   nosym =.true.
/
&electrons
   electron_maxstep=300,
   mixing_mode = 'plain'
   mixing_beta = 0.2
/
&ions
/
CELL_PARAMETERS {angstrom}
 15.65774  0.0    0.0 
  0.0  15.65774   0.0 
  0.0   0.0    4.26000
ATOMIC_SPECIES
 C    12.011    C.pbe-n-kjpaw_psl.1.0.0.UPF
ATOMIC_POSITIONS {angstrom}
C  11.74331  7.82887  0.00000 
C  11.74331  7.82887  1.42000 
C  11.55172  9.03850  2.13000 
C  10.99571 10.12972  1.42000 
C  10.99571 10.12972  0.00000 
C   9.03850 11.55172  0.00000 
C  11.55172  9.03850  3.55000 
C  10.12972 10.99571  3.55000 
C  10.12972 10.99571  2.13000 
C   9.03850 11.55172  1.42000 
C   7.82887 11.74331  2.13000 
C   6.61924 11.55172  1.42000 
C   6.61924 11.55172  0.00000 
C   4.66203 10.12972  0.00000 
C   7.82887 11.74331  3.55000 
C   5.52802 10.99571  3.55000 
C   5.52802 10.99571  2.13000 
C   4.66203 10.12972  1.42000 
C   4.10602  9.03850  2.13000 
C   3.91444  7.82887  1.42000 
C   3.91444  7.82887  0.00000 
C   4.66203  5.52802  0.00000 
C   4.10602  9.03850  3.55000 
C   4.10602  6.61924  3.55000 
C   4.10602  6.61924  2.13000 
C   4.66203  5.52802  1.42000 
C   5.52802  4.66203  2.13000 
C   6.61924  4.10602  1.42000 
C   6.61924  4.10602  0.00000 
C   9.03850  4.10602 -0.00000 
C   5.52802  4.66203  3.55000 
C   7.82887  3.91444  3.55000 
C   7.82887  3.91444  2.13000 
C   9.03850  4.10602  1.42000 
C  10.12972  4.66203  2.13000 
C  10.99571  5.52802  1.42000 
C  10.99571  5.52802 -0.00000 
C  10.12972  4.66203  3.55000 
C  11.55172  6.61924  3.55000 
C  11.55172  6.61924  2.13000 
K_POINTS {automatic}
1 1 12  0 0 0
