&control
   calculation = 'bands'
   prefix='swnt',
   tstress = .true.
   tprnfor = .true.
   pseudo_dir = '../sssp_pseudo',
   outdir='./work/'
   disk_io='low'
/
&SYSTEM
   ibrav = 0
   nat = 60
   ntyp = 2
   nbnd = 180
   ecutwfc = 40.0
   occupations = 'smearing'
   smearing = 'gaussian'
   degauss = 0.02
   nosym =.true.
/
&electrons
   electron_maxstep=300,
   mixing_mode = 'plain'
   mixing_beta = 0.2
/
&ions
/
CELL_PARAMETERS {angstrom}
 40.68000  0.0    0.0 
  0.0  40.68000   0.0 
  0.0   0.0    2.45951
ATOMIC_SPECIES
 B    10.811    b_pbe_v1.4.uspp.F.UPF
 N    14.007    N.pbe-n-radius_5.UPF
ATOMIC_POSITIONS {angstrom}
  B  30.51000 20.34000  0.00000 
  N  30.41103 21.75539  0.00000 
  B  29.63076 24.47651  0.00000 
  N  28.96465 25.72928  0.00000 
  B  27.14506 27.89779  0.00000 
  N  26.02699 28.77131  0.00000 
  B  23.48270 30.01225  0.00000 
  N  22.10600 30.35550  0.00000 
  B  19.27695 30.45429  0.00000 
  N  17.87966 30.20791  0.00000 
  B  15.25500 29.14748  0.00000 
  N  14.07872 28.35407  0.00000 
  B  12.11230 26.31778  0.00000 
  N  11.36042 25.11453  0.00000 
  B  10.39224 22.45446  0.00000 
  N  10.19477 21.04943  0.00000 
  B  10.39224 18.22554  0.00000 
  N  10.78333 16.86166  0.00000 
  B  12.11230 14.36223  0.00000 
  N  13.02432 13.27533  0.00000 
  B  15.25500 11.53252  0.00000 
  N  16.53025 10.91054  0.00000 
  B  19.27695 10.22571  0.00000 
  N  20.69493 10.17620  0.00000 
  B  23.48270 10.66776  0.00000 
  N  24.79824 11.19927  0.00000 
  B  27.14506 12.78222  0.00000 
  N  28.13067 13.80285  0.00000 
  B  29.63076 16.20349  0.00000 
  N  30.11603 17.53677  0.00000 
  B  30.28776 22.45446  1.22976 
  N  29.89668 23.81835  1.22976 
  B  28.56771 26.31778  1.22976 
  N  27.65569 27.40468  1.22976 
  B  25.42500 29.14748  1.22976 
  N  24.14975 29.76946  1.22976 
  B  21.40306 30.45429  1.22976 
  N  19.98507 30.50381  1.22976 
  B  17.19730 30.01225  1.22976 
  N  15.88177 29.48074  1.22976 
  B  13.53494 27.89779  1.22976 
  N  12.54933 26.87715  1.22976 
  B  11.04924 24.47651  1.22976 
  N  10.56397 23.14323  1.22976 
  B  10.17000 20.34000  1.22976 
  N  10.26897 18.92461  1.22976 
  B  11.04924 16.20349  1.22976 
  N  11.71535 14.95072  1.22976 
  B  13.53494 12.78222  1.22976 
  N  14.65301 11.90869  1.22976 
  B  17.19730 10.66776  1.22976 
  N  18.57400 10.32451  1.22976 
  B  21.40306 10.22571  1.22976 
  N  22.80035 10.47209  1.22976 
  B  25.42500 11.53252  1.22976 
  N  26.60128 12.32593  1.22976 
  B  28.56771 14.36223  1.22976 
  N  29.31958 15.56548  1.22976 
  B  30.28776 18.22554  1.22976 
  N  30.48523 19.63058  1.22976 
K_POINTS {crystal_b}
2
0.00000  0.00000  0.00000  30 ! gamma
0.00000  0.00000  0.50000  1 ! Z
